# Solution for model GasLib-40
# Objective value = 1.0145545380712809e+01
loadshed[innode_1] 0
loadshed[innode_2] 0
loadshed[innode_3] 0
loadshed[innode_4] 0
loadshed[innode_5] 0
loadshed[innode_6] 0
loadshed[innode_7] 0
loadshed[innode_8] 0
loadshed[source_1] -2.1607096701324435e-01
loadshed[source_2] -4.5663192143967857e-02
loadshed[source_3] 3.2590980312030171e-01
loadshed[sink_1] 0
loadshed[sink_2] 0
loadshed[sink_3] 0
loadshed[sink_4] 0
loadshed[sink_5] 0
loadshed[sink_6] 0
loadshed[sink_7] 0
loadshed[sink_8] 0
loadshed[sink_9] 0
loadshed[sink_10] 0
loadshed[sink_11] 0
loadshed[sink_12] 6.2036455831110171e-01
loadshed[sink_13] 0
loadshed[sink_14] 0
loadshed[sink_15] 0
loadshed[sink_16] 0
loadshed[sink_17] 0
loadshed[sink_18] 0
loadshed[sink_19] 0
loadshed[sink_20] 0
loadshed[sink_21] 0
loadshed[sink_22] 0
loadshed[sink_23] 0
loadshed[sink_24] 0
loadshed[sink_25] 0
loadshed[sink_26] 0
loadshed[sink_27] 0
loadshed[sink_28] 0
loadshed[sink_29] 0
flow[source_1,sink_3] 1.9224899697261463e+02
flow[innode_1,sink_16] 1.6354166666666970e+01
flow[innode_6,sink_13] 7.91206019469184
flow[sink_13,sink_14] -8.4421064719748280e+00
flow[sink_14,sink_10] -2.4796273138641496e+01
flow[sink_25,sink_26] 1.7188287174628340e+02
flow[sink_26,sink_9] 1.2214026162848778e+02
flow[sink_9,sink_18] 1.0578609496182111e+02
flow[sink_26,sink_4] 3.3388443451128950e+01
flow[sink_4,sink_20] -1.7228610466302655e+01
flow[sink_18,sink_6] 8.9431928295154435e+01
flow[sink_25,innode_8] -1.5954066363927825e+02
flow[sink_6,sink_7] 4.0369428295154194e+01
flow[sink_6,sink_22] 3.2708333333333641e+01
flow[sink_7,sink_24] 3.8916954619287196e+01
flow[sink_22,sink_1] 1.6354166666666970e+01
flow[sink_24,sink_21] 2.2562787952620525e+01
flow[sink_21,sink_12] 6.2086212859538570e+00
flow[sink_7,sink_5] -1.4901692990799972e+01
flow[sink_5,sink_17] -3.1255859657466658e+01
flow[sink_17,sink_4] -3.4262887250764940e+01
flow[sink_17,sink_8] -1.3347139073368366e+01
flow[sink_3,sink_23] 16.3541666666697
flow[sink_8,sink_20] -2.9701305740035032e+01
flow[sink_25,sink_20] 6.3284082873004365e+01
flow[sink_25,sink_15] -9.9892517841369681e+01
flow[sink_15,sink_29] -6.4575365238810008e+01
flow[sink_29,sink_28] 1.6354166666667879e+01
flow[sink_29,sink_2] 6.8025485935893016e+01
flow[sink_2,sink_15] 5.1671319269226345e+01
flow[sink_29,innode_7] -1.6530918450803770e+02
flow[innode_4,sink_19] 9.0212939805308707e+01
flow[sink_19,innode_3] 3.6042769533945268e+01
flow[innode_4,innode_5] 1.6354166666679703e+01
flow[sink_27,innode_5] -1.6354166666679703e+01
flow[sink_27,sink_19] 0
flow[sink_10,sink_11] 3.2708333333333641e+01
flow[sink_10,innode_2] -3.7816003604696533e+01
flow[sink_10,innode_3] -3.6042769533945268e+01
flow[innode_6,sink_25] -7.91206019469184
flow[sink_11,innode_1] 1.6354166666666970e+01
flow[sink_19,innode_2] 3.7816003604696533e+01
flow[source_3,innode_4] 1.0656710647198841e+02
flow[source_2,innode_7] 1.6530918450803770e+02
flow[sink_3,innode_8] 1.5954066363927825e+02
pressure[innode_1] 75.2080606612843
pressure[innode_2] 7.7358493944606209e+01
pressure[innode_3] 7.7278681312874170e+01
pressure[innode_4] 81.01325
pressure[innode_5] 8.1002000741808786e+01
pressure[innode_6] 7.4215443064003026e+01
pressure[innode_7] 81.01325
pressure[innode_8] 8.0370635044899359e+01
pressure[source_1] 81.01325
pressure[source_2] 81.01325
pressure[source_3] 81.01325
pressure[sink_1] 4.6482590872104424e+01
pressure[sink_2] 7.4868714582222850e+01
pressure[sink_3] 8.0370635044899359e+01
pressure[sink_4] 5.7864740234599289e+01
pressure[sink_5] 5.4226990041614819e+01
pressure[sink_6] 4.8583668482491795e+01
pressure[sink_7] 4.8029492458152433e+01
pressure[sink_8] 5.7058947894506275e+01
pressure[sink_9] 5.4799423454322429e+01
pressure[sink_10] 7.5359761968887852e+01
pressure[sink_11] 75.2080606612843
pressure[sink_12] 1.0132500000000002e+00
pressure[sink_13] 7.4171825198377775e+01
pressure[sink_14] 7.4186933067017833e+01
pressure[sink_15] 7.4700019112984165e+01
pressure[sink_16] 7.4186410826466627e+01
pressure[sink_17] 5.6555325662253445e+01
pressure[sink_18] 5.0971767241815783e+01
pressure[sink_19] 7.7358493944606209e+01
pressure[sink_20] 5.9128711207073806e+01
pressure[sink_21] 3.2226172527089543e+00
pressure[sink_22] 4.7546360014459438e+01
pressure[sink_23] 8.0205917033239572e+01
pressure[sink_24] 3.4724791659540828e+00
pressure[sink_25] 7.4215443064003026e+01
pressure[sink_26] 6.2109833348125093e+01
pressure[sink_27] 8.0866291377726043e+01
pressure[sink_28] 76.2965946387791
pressure[sink_29] 7.6591876912396273e+01
interdiction[source_1,sink_3] 0
interdiction[innode_1,sink_16] 0
interdiction[innode_6,sink_13] 0
interdiction[sink_13,sink_14] 0
interdiction[sink_14,sink_10] 0
interdiction[sink_25,sink_26] 0
interdiction[sink_26,sink_9] 0
interdiction[sink_9,sink_18] 0
interdiction[sink_26,sink_4] 0
interdiction[sink_4,sink_20] 0
interdiction[sink_18,sink_6] 0
interdiction[sink_25,innode_8] 0
interdiction[sink_6,sink_7] 0
interdiction[sink_6,sink_22] 0
interdiction[sink_7,sink_24] 0
interdiction[sink_22,sink_1] 0
interdiction[sink_24,sink_21] 0
interdiction[sink_21,sink_12] 0
interdiction[sink_7,sink_5] 0
interdiction[sink_5,sink_17] 0
interdiction[sink_17,sink_4] 0
interdiction[sink_17,sink_8] 0
interdiction[sink_3,sink_23] 0
interdiction[sink_8,sink_20] 0
interdiction[sink_25,sink_20] 0
interdiction[sink_25,sink_15] 0
interdiction[sink_15,sink_29] 0
interdiction[sink_29,sink_28] 0
interdiction[sink_29,sink_2] 0
interdiction[sink_2,sink_15] 0
interdiction[sink_29,innode_7] 0
interdiction[innode_4,sink_19] 0
interdiction[sink_19,innode_3] 0
interdiction[innode_4,innode_5] 0
interdiction[sink_27,innode_5] 0
interdiction[sink_27,sink_19] 1
interdiction[sink_10,sink_11] 0
interdiction[sink_10,innode_2] 0
interdiction[sink_10,innode_3] 0
interdiction[innode_6,sink_25] 0
interdiction[sink_11,innode_1] 0
interdiction[sink_19,innode_2] 0
interdiction[source_3,innode_4] 0
interdiction[source_2,innode_7] 0
interdiction[sink_3,innode_8] 0
WCcheckFlow[source_1,sink_3] 39
WCcheckFlow[innode_1,sink_16] 1
WCcheckFlow[innode_6,sink_13] 13
WCcheckFlow[sink_13,sink_14] 12
WCcheckFlow[sink_14,sink_10] 11
WCcheckFlow[sink_25,sink_26] 15
WCcheckFlow[sink_26,sink_9] 12
WCcheckFlow[sink_9,sink_18] 11
WCcheckFlow[sink_26,sink_4] 2
WCcheckFlow[sink_4,sink_20] 1
WCcheckFlow[sink_18,sink_6] 10
WCcheckFlow[sink_25,innode_8] -36
WCcheckFlow[sink_6,sink_7] 7
WCcheckFlow[sink_6,sink_22] 2
WCcheckFlow[sink_7,sink_24] 3
WCcheckFlow[sink_22,sink_1] 1
WCcheckFlow[sink_24,sink_21] 2
WCcheckFlow[sink_21,sink_12] 1
WCcheckFlow[sink_7,sink_5] 3
WCcheckFlow[sink_5,sink_17] 2
WCcheckFlow[sink_17,sink_4] 0
WCcheckFlow[sink_17,sink_8] 1
WCcheckFlow[sink_3,sink_23] 1
WCcheckFlow[sink_8,sink_20] 0
WCcheckFlow[sink_25,sink_20] 0
WCcheckFlow[sink_25,sink_15] 6
WCcheckFlow[sink_15,sink_29] 5
WCcheckFlow[sink_29,sink_28] 1
WCcheckFlow[sink_29,sink_2] 1
WCcheckFlow[sink_2,sink_15] 0
WCcheckFlow[sink_29,innode_7] 2
WCcheckFlow[innode_4,sink_19] -4
WCcheckFlow[sink_19,innode_3] -5
WCcheckFlow[innode_4,innode_5] 2
WCcheckFlow[sink_27,innode_5] -1
WCcheckFlow[sink_27,sink_19] 0
WCcheckFlow[sink_10,sink_11] 3
WCcheckFlow[sink_10,innode_2] 1
WCcheckFlow[sink_10,innode_3] 6
WCcheckFlow[innode_6,sink_25] -14
WCcheckFlow[sink_11,innode_1] 2
WCcheckFlow[sink_19,innode_2] 0
WCcheckFlow[source_3,innode_4] -1
WCcheckFlow[source_2,innode_7] -1
WCcheckFlow[sink_3,innode_8] 37
